% number of games is 45

num = 45;
cap = 5;
refill = 2;
fun = [-11, -8, 14, -3, 20, -17, -8, -18, -9, 17, -9, -14, 4, -7, -8, -10, -16, -13, -11, 10, 2, 7, -11, 2, 13, -5, -17, -5, 16, -3, -20, 6, -1, -14, -8, 13, -7, 20, -10, 12, -13, 9, -11, -10, 4];
